; Options: -q --produce-models --incremental --print-success --lang smt2.6 --arrays-exp
(set-logic ALL)

(declare-fun start!1149 () Bool)

(assert start!1149)

(declare-fun res!4348 () Bool)

(declare-fun e!2789 () Bool)

(assert (=> start!1149 (=> (not res!4348) (not e!2789))))

(declare-fun jz!67 () (_ BitVec 32))

(declare-datatypes ((array!423 0))(
  ( (array!424 (arr!186 (Array (_ BitVec 32) (_ FloatingPoint 11 53))) (size!186 (_ BitVec 32))) )
))
(declare-fun qq!69 () array!423)

(assert (=> start!1149 (= res!4348 (and (bvsle #b00000000000000000000000000000000 jz!67) (bvslt jz!67 #b00000000000000000000000000010100) (= (size!186 qq!69) #b00000000000000000000000000010100)))))

(assert (=> start!1149 e!2789))

(assert (=> start!1149 true))

(declare-fun array_inv!136 (array!423) Bool)

(assert (=> start!1149 (array_inv!136 qq!69)))

(declare-fun b!5487 () Bool)

(declare-fun res!4349 () Bool)

(assert (=> b!5487 (=> (not res!4349) (not e!2789))))

(declare-fun qqInv!0 (array!423) Bool)

(assert (=> b!5487 (= res!4349 (qqInv!0 qq!69))))

(declare-fun b!5488 () Bool)

(assert (=> b!5488 (= e!2789 false)))

(assert (= (and start!1149 res!4348) b!5487))

(assert (= (and b!5487 res!4349) b!5488))

(declare-fun m!9093 () Bool)

(assert (=> start!1149 m!9093))

(declare-fun m!9095 () Bool)

(assert (=> b!5487 m!9095))

(declare-fun m!9097 () Bool)

(assert (=> b!5488 m!9097))

(declare-fun m!9099 () Bool)

(assert (=> b!5488 m!9099))

(declare-fun m!9101 () Bool)

(assert (=> b!5488 m!9101))

(declare-fun m!9103 () Bool)

(assert (=> b!5488 m!9103))

(declare-fun m!9105 () Bool)

(assert (=> b!5488 m!9105))

(declare-fun m!9107 () Bool)

(assert (=> b!5488 m!9107))

(declare-fun m!9109 () Bool)

(assert (=> b!5488 m!9109))

(declare-fun m!9111 () Bool)

(assert (=> b!5488 m!9111))

(declare-fun m!9113 () Bool)

(assert (=> b!5488 m!9113))

(push 1)

(assert (not start!1149))

(assert (not b!5487))

(check-sat)

(pop 1)

(push 1)

(check-sat)

(pop 1)

